% Logging successfully configured
%%%mzn-stat: initTime=0.029729879
%%%mzn-stat: objective=916
%%%mzn-stat: nodes=121652
%%%mzn-stat: restarts=0
%%%mzn-stat: peakDepth=402
%%%mzn-stat: solveTime=27.107617929
%%%mzn-stat: variables=816
%%%mzn-stat: propagators=576
%%%mzn-stat: failures=91259
%%%mzn-stat: propagations=2296740
%%%mzn-stat: nogoods=91259
%%%mzn-stat: numAtomicConstraintsPropagated=0
%%%mzn-stat: allDifferentNumber1TotalHallSetSize=12608
%%%mzn-stat: allDifferentNumber1NumberOfConflicts=4214
%%%mzn-stat: allDifferentNumber1MaxHallSetSize=33
%%%mzn-stat: allDifferentNumber1PropagationsTotal=311610
%%%mzn-stat: allDifferentNumber1PropagationsThatFoundConflict=4214
%%%mzn-stat: circuitNumber2PropagationsThatFoundConflict=86163
%%%mzn-stat: circuitNumber2TotalFixedEdgesAtConflict=3930645
%%%mzn-stat: circuitNumber2NumberOfConflicts=86163
%%%mzn-stat: circuitNumber2PropagationsThatPruned=18245
%%%mzn-stat: circuitNumber2PropagationsTotal=202651
%%%mzn-stat: AverageConflictSize=39.77585772362178
%%%mzn-stat: NumUnitNogoodsLearned=0
%%%mzn-stat: AverageLearnedNogoodLength=27.581312528079422
%%%mzn-stat: AverageBacktrackAmount=0
%%%mzn-stat: AverageLbd=27.322083301373016
%%%mzn-stat: 2AutonomousSearchNumBackupCalled=369
%%%mzn-stat: 2AutonomousSearchNumPredicatesRemoved=0
%%%mzn-stat: 2AutonomousSearchNumCalls=370
%%%mzn-stat: 2AutonomousSearchNumPredicatesAdded=1801
%%%mzn-stat: 2AutonomousSearchAverageSizeOfHeap=4.867567567567567
%%%mzn-stat: 2AutonomousSearchNumAssignedPredicatesEncountered=1801
%%%mzn-stat-end
maxleg = 916;
succ = array1d(1..50,[4, 5, 9, 2, 15, 8, 13, 10, 16, 18, 17, 14, 6, 20, 12, 1, 21, 3, 30, 40, 19, 7, 28, 29, 39, 11, 26, 42, 45, 33, 27, 43, 41, 22, 34, 31, 50, 35, 47, 32, 49, 37, 25, 38, 44, 36, 48, 23, 24, 46]);
% time elapsed: 33.19 s
----------
%%%mzn-stat: initTime=0.029729879
%%%mzn-stat: objective=340
%%%mzn-stat: nodes=122509
%%%mzn-stat: restarts=0
%%%mzn-stat: peakDepth=407
%%%mzn-stat: solveTime=27.175090826
%%%mzn-stat: variables=816
%%%mzn-stat: propagators=576
%%%mzn-stat: failures=91509
%%%mzn-stat: propagations=2306739
%%%mzn-stat: nogoods=91509
%%%mzn-stat: numAtomicConstraintsPropagated=0
%%%mzn-stat: allDifferentNumber1TotalHallSetSize=12749
%%%mzn-stat: allDifferentNumber1NumberOfConflicts=4249
%%%mzn-stat: allDifferentNumber1MaxHallSetSize=33
%%%mzn-stat: allDifferentNumber1PropagationsTotal=312597
%%%mzn-stat: allDifferentNumber1PropagationsThatFoundConflict=4249
%%%mzn-stat: circuitNumber2PropagationsThatFoundConflict=86356
%%%mzn-stat: circuitNumber2TotalFixedEdgesAtConflict=3938045
%%%mzn-stat: circuitNumber2NumberOfConflicts=86356
%%%mzn-stat: circuitNumber2PropagationsThatPruned=18390
%%%mzn-stat: circuitNumber2PropagationsTotal=203409
%%%mzn-stat: AverageConflictSize=39.705340458315575
%%%mzn-stat: NumUnitNogoodsLearned=0
%%%mzn-stat: AverageLearnedNogoodLength=27.5594094569933
%%%mzn-stat: AverageBacktrackAmount=0
%%%mzn-stat: AverageLbd=27.278617403752637
%%%mzn-stat: 2AutonomousSearchNumBackupCalled=737
%%%mzn-stat: 2AutonomousSearchNumPredicatesRemoved=0
%%%mzn-stat: 2AutonomousSearchNumCalls=739
%%%mzn-stat: 2AutonomousSearchNumPredicatesAdded=2470
%%%mzn-stat: 2AutonomousSearchAverageSizeOfHeap=4.875507442489851
%%%mzn-stat: 2AutonomousSearchNumAssignedPredicatesEncountered=3603
%%%mzn-stat-end
maxleg = 340;
succ = array1d(1..50,[4, 5, 9, 2, 15, 8, 13, 10, 16, 18, 17, 14, 6, 20, 12, 1, 21, 3, 30, 40, 19, 7, 37, 29, 39, 27, 28, 35, 41, 33, 26, 43, 24, 22, 38, 31, 42, 44, 47, 32, 49, 11, 25, 45, 34, 50, 48, 23, 46, 36]);
% time elapsed: 33.24 s
----------
%%%mzn-stat: initTime=0.029729879
%%%mzn-stat: objective=331
%%%mzn-stat: nodes=122912
%%%mzn-stat: restarts=0
%%%mzn-stat: peakDepth=407
%%%mzn-stat: solveTime=27.1813147
%%%mzn-stat: variables=816
%%%mzn-stat: propagators=576
%%%mzn-stat: failures=91516
%%%mzn-stat: propagations=2307990
%%%mzn-stat: nogoods=91516
%%%mzn-stat: numAtomicConstraintsPropagated=0
%%%mzn-stat: allDifferentNumber1TotalHallSetSize=12751
%%%mzn-stat: allDifferentNumber1NumberOfConflicts=4250
%%%mzn-stat: allDifferentNumber1MaxHallSetSize=33
%%%mzn-stat: allDifferentNumber1PropagationsTotal=312670
%%%mzn-stat: allDifferentNumber1PropagationsThatFoundConflict=4250
%%%mzn-stat: circuitNumber2PropagationsThatFoundConflict=86361
%%%mzn-stat: circuitNumber2TotalFixedEdgesAtConflict=3938240
%%%mzn-stat: circuitNumber2NumberOfConflicts=86361
%%%mzn-stat: circuitNumber2PropagationsThatPruned=18399
%%%mzn-stat: circuitNumber2PropagationsTotal=203464
%%%mzn-stat: AverageConflictSize=39.703210367585996
%%%mzn-stat: NumUnitNogoodsLearned=0
%%%mzn-stat: AverageLearnedNogoodLength=27.558765680318196
%%%mzn-stat: AverageBacktrackAmount=0
%%%mzn-stat: AverageLbd=27.27735040867171
%%%mzn-stat: 2AutonomousSearchNumBackupCalled=1096
%%%mzn-stat: 2AutonomousSearchNumPredicatesRemoved=0
%%%mzn-stat: 2AutonomousSearchNumCalls=1099
%%%mzn-stat: 2AutonomousSearchNumPredicatesAdded=2739
%%%mzn-stat: 2AutonomousSearchAverageSizeOfHeap=4.91810737033667
%%%mzn-stat: 2AutonomousSearchNumAssignedPredicatesEncountered=5405
%%%mzn-stat-end
maxleg = 331;
succ = array1d(1..50,[4, 5, 9, 2, 15, 8, 13, 10, 16, 18, 17, 14, 6, 20, 12, 1, 21, 3, 30, 40, 19, 7, 37, 29, 39, 31, 28, 35, 41, 33, 27, 43, 24, 22, 38, 26, 42, 44, 47, 32, 49, 11, 25, 45, 34, 50, 48, 23, 46, 36]);
% time elapsed: 33.25 s
----------
%%%mzn-stat: initTime=0.029729879
%%%mzn-stat: objective=323
%%%mzn-stat: nodes=178989
%%%mzn-stat: restarts=0
%%%mzn-stat: peakDepth=407
%%%mzn-stat: solveTime=40.955415385
%%%mzn-stat: variables=816
%%%mzn-stat: propagators=576
%%%mzn-stat: failures=130016
%%%mzn-stat: propagations=3474932
%%%mzn-stat: nogoods=130016
%%%mzn-stat: numAtomicConstraintsPropagated=0
%%%mzn-stat: allDifferentNumber1TotalHallSetSize=16850
%%%mzn-stat: allDifferentNumber1NumberOfConflicts=5803
%%%mzn-stat: allDifferentNumber1MaxHallSetSize=35
%%%mzn-stat: allDifferentNumber1PropagationsTotal=453058
%%%mzn-stat: allDifferentNumber1PropagationsThatFoundConflict=5803
%%%mzn-stat: circuitNumber2PropagationsThatFoundConflict=122793
%%%mzn-stat: circuitNumber2TotalFixedEdgesAtConflict=5611673
%%%mzn-stat: circuitNumber2NumberOfConflicts=122793
%%%mzn-stat: circuitNumber2PropagationsThatPruned=28830
%%%mzn-stat: circuitNumber2PropagationsTotal=296844
%%%mzn-stat: AverageConflictSize=39.51555962343096
%%%mzn-stat: NumUnitNogoodsLearned=0
%%%mzn-stat: AverageLearnedNogoodLength=30.529050270735908
%%%mzn-stat: AverageBacktrackAmount=0
%%%mzn-stat: AverageLbd=27.19534518828452
%%%mzn-stat: 2AutonomousSearchNumBackupCalled=1453
%%%mzn-stat: 2AutonomousSearchNumPredicatesRemoved=0
%%%mzn-stat: 2AutonomousSearchNumCalls=1457
%%%mzn-stat: 2AutonomousSearchNumPredicatesAdded=4401
%%%mzn-stat: 2AutonomousSearchAverageSizeOfHeap=5.122168840082361
%%%mzn-stat: 2AutonomousSearchNumAssignedPredicatesEncountered=7463
%%%mzn-stat-end
maxleg = 323;
succ = array1d(1..50,[4, 5, 9, 2, 15, 8, 13, 10, 16, 18, 17, 14, 6, 22, 12, 1, 21, 29, 30, 37, 19, 34, 40, 33, 39, 31, 28, 23, 46, 24, 27, 43, 41, 35, 38, 26, 42, 44, 47, 32, 49, 11, 25, 45, 7, 50, 48, 20, 3, 36]);
% time elapsed: 47.03 s
----------
%%%mzn-stat: initTime=0.029729879
%%%mzn-stat: objective=311
%%%mzn-stat: nodes=179934
%%%mzn-stat: restarts=0
%%%mzn-stat: peakDepth=407
%%%mzn-stat: solveTime=40.986300599
%%%mzn-stat: variables=816
%%%mzn-stat: propagators=576
%%%mzn-stat: failures=130059
%%%mzn-stat: propagations=3481068
%%%mzn-stat: nogoods=130059
%%%mzn-stat: numAtomicConstraintsPropagated=0
%%%mzn-stat: allDifferentNumber1TotalHallSetSize=17017
%%%mzn-stat: allDifferentNumber1NumberOfConflicts=5844
%%%mzn-stat: allDifferentNumber1MaxHallSetSize=39
%%%mzn-stat: allDifferentNumber1PropagationsTotal=454014
%%%mzn-stat: allDifferentNumber1PropagationsThatFoundConflict=5844
%%%mzn-stat: circuitNumber2PropagationsThatFoundConflict=122795
%%%mzn-stat: circuitNumber2TotalFixedEdgesAtConflict=5611769
%%%mzn-stat: circuitNumber2NumberOfConflicts=122795
%%%mzn-stat: circuitNumber2PropagationsThatPruned=28850
%%%mzn-stat: circuitNumber2PropagationsTotal=297442
%%%mzn-stat: AverageConflictSize=39.50460175766383
%%%mzn-stat: NumUnitNogoodsLearned=0
%%%mzn-stat: AverageLearnedNogoodLength=30.520894363327415
%%%mzn-stat: AverageBacktrackAmount=0
%%%mzn-stat: AverageLbd=27.187953159719818
%%%mzn-stat: 2AutonomousSearchNumBackupCalled=1787
%%%mzn-stat: 2AutonomousSearchNumPredicatesRemoved=0
%%%mzn-stat: 2AutonomousSearchNumCalls=1792
%%%mzn-stat: 2AutonomousSearchNumPredicatesAdded=4606
%%%mzn-stat: 2AutonomousSearchAverageSizeOfHeap=5.323660714285714
%%%mzn-stat: 2AutonomousSearchNumAssignedPredicatesEncountered=9540
%%%mzn-stat-end
maxleg = 311;
succ = array1d(1..50,[16, 4, 9, 5, 15, 8, 13, 10, 18, 19, 17, 14, 6, 22, 12, 24, 21, 29, 1, 23, 28, 34, 40, 30, 2, 11, 31, 42, 46, 33, 26, 39, 41, 35, 38, 27, 20, 44, 43, 47, 49, 37, 25, 45, 7, 50, 48, 32, 3, 36]);
% time elapsed: 47.06 s
----------
%%%mzn-stat: initTime=0.029729879
%%%mzn-stat: objective=309
%%%mzn-stat: nodes=180475
%%%mzn-stat: restarts=0
%%%mzn-stat: peakDepth=407
%%%mzn-stat: solveTime=40.998788119
%%%mzn-stat: variables=816
%%%mzn-stat: propagators=576
%%%mzn-stat: failures=130078
%%%mzn-stat: propagations=3483682
%%%mzn-stat: nogoods=130078
%%%mzn-stat: numAtomicConstraintsPropagated=0
%%%mzn-stat: allDifferentNumber1TotalHallSetSize=17106
%%%mzn-stat: allDifferentNumber1NumberOfConflicts=5862
%%%mzn-stat: allDifferentNumber1MaxHallSetSize=39
%%%mzn-stat: allDifferentNumber1PropagationsTotal=454336
%%%mzn-stat: allDifferentNumber1PropagationsThatFoundConflict=5862
%%%mzn-stat: circuitNumber2PropagationsThatFoundConflict=122795
%%%mzn-stat: circuitNumber2TotalFixedEdgesAtConflict=5611769
%%%mzn-stat: circuitNumber2NumberOfConflicts=122795
%%%mzn-stat: circuitNumber2PropagationsThatPruned=28859
%%%mzn-stat: circuitNumber2PropagationsTotal=297640
%%%mzn-stat: AverageConflictSize=39.49990005996402
%%%mzn-stat: NumUnitNogoodsLearned=0
%%%mzn-stat: AverageLearnedNogoodLength=30.517766263318933
%%%mzn-stat: AverageBacktrackAmount=0
%%%mzn-stat: AverageLbd=27.184919817340365
%%%mzn-stat: 2AutonomousSearchNumBackupCalled=2135
%%%mzn-stat: 2AutonomousSearchNumPredicatesRemoved=0
%%%mzn-stat: 2AutonomousSearchNumCalls=2141
%%%mzn-stat: 2AutonomousSearchNumPredicatesAdded=4885
%%%mzn-stat: 2AutonomousSearchAverageSizeOfHeap=5.460532461466604
%%%mzn-stat: 2AutonomousSearchNumAssignedPredicatesEncountered=11691
%%%mzn-stat-end
maxleg = 309;
succ = array1d(1..50,[16, 4, 9, 5, 15, 8, 13, 10, 18, 19, 17, 14, 6, 22, 12, 24, 21, 29, 30, 23, 28, 34, 40, 49, 2, 11, 31, 42, 46, 33, 26, 39, 41, 35, 38, 27, 20, 44, 43, 47, 1, 37, 25, 45, 7, 50, 48, 32, 3, 36]);
% time elapsed: 47.08 s
----------
==========
% time elapsed: 109.85 s
%%%mzn-stat: initTime=0.029729879
%%%mzn-stat: objective=309
%%%mzn-stat: nodes=454079
%%%mzn-stat: restarts=0
%%%mzn-stat: peakDepth=407
%%%mzn-stat: solveTime=103.772628143
%%%mzn-stat: variables=816
%%%mzn-stat: propagators=576
%%%mzn-stat: failures=396733
%%%mzn-stat: propagations=6080489
%%%mzn-stat: nogoods=396733
%%%mzn-stat: numAtomicConstraintsPropagated=0
%%%mzn-stat: allDifferentNumber1TotalHallSetSize=11252121
%%%mzn-stat: allDifferentNumber1NumberOfConflicts=270878
%%%mzn-stat: allDifferentNumber1MaxHallSetSize=44
%%%mzn-stat: allDifferentNumber1PropagationsTotal=1192626
%%%mzn-stat: allDifferentNumber1PropagationsThatFoundConflict=270878
%%%mzn-stat: circuitNumber2PropagationsThatFoundConflict=124326
%%%mzn-stat: circuitNumber2TotalFixedEdgesAtConflict=5676295
%%%mzn-stat: circuitNumber2NumberOfConflicts=124326
%%%mzn-stat: circuitNumber2PropagationsThatPruned=29347
%%%mzn-stat: circuitNumber2PropagationsTotal=502547
%%%mzn-stat: AverageConflictSize=33.63615580251706
%%%mzn-stat: NumUnitNogoodsLearned=1
%%%mzn-stat: AverageLearnedNogoodLength=25.768663055505844
%%%mzn-stat: AverageBacktrackAmount=0
%%%mzn-stat: AverageLbd=13.501097715592099
%%%mzn-stat: 2AutonomousSearchNumBackupCalled=2135
%%%mzn-stat: 2AutonomousSearchNumPredicatesRemoved=0
%%%mzn-stat: 2AutonomousSearchNumCalls=2141
%%%mzn-stat: 2AutonomousSearchNumPredicatesAdded=7068
%%%mzn-stat: 2AutonomousSearchAverageSizeOfHeap=5.460532461466604
%%%mzn-stat: 2AutonomousSearchNumAssignedPredicatesEncountered=11691
%%%mzn-stat-end
